\ENCODING=ISO-8859-1
\Problem name: QP from CasADi

Minimize
 obj: 0 x226 + 0 x227 + 0 x228 + 0 x229 + 0 x230 + 0 x231 + 0 x232 + 0 x233
      + 0 x234 + 0 x235 + 0 x236 + 0 x237 + 0 x238 + 0 x239 + 0 x240 + 0 x241
      + 0 x242 + 0 x243 + 0 x244 + 0 x245 + 0 x246 + 0 x247 + 0 x248 + 0 x249
      + 0 x250 + 0 x251 + 0 x252 + 0 x253 + 0 x254 + 0 x255 + 0 x256 + 0 x257
      + 0 x258 + 0 x259 + 0 x260 + 0 x261 + 0 x262 + 0 x263 + 0 x264 + 0 x265
      + 0 x266 + 0 x267 + 0 x268 + 0 x269 + 0 x270 + 0 x406 + 0 x407 + 0 x408
      + 0 x409 + 0 x410 + 0 x411 + 0 x412 + 0 x413 + 0 x414 + 0 x415 + 0 x416
      + 0 x417 + 0 x418 + 0 x419 + 0 x420 + 0 x421 + 0 x422 + 0 x423 + 0 x424
      + 0 x425 + 0 x426 + 0 x427 + 0 x428 + 0 x429 + 0 x430 + 0 x431 + 0 x432
      + 0 x433 + 0 x434 + 0 x435 + 0 x436 + 0 x437 + 0 x438 + 0 x439 + 0 x440
      + 0 x441 + 0 x442 + 0 x443 + 0 x444 + 0 x445 + 0 x446 + 0 x447 + 0 x448
      + 0 x449 + 0 x450 + 0 x451 + 0 x452 + 0 x453 + 0 x454 + 0 x455 + 0 x456
      + 0 x457 + 0 x458 + 0 x459 + 0 x460 + 0 x461 + 0 x462 + 0 x463 + 0 x464
      + 0 x465 + 0 x466 + 0 x467 + 0 x468 + 0 x469 + 0 x470 + 0 x471 + 0 x472
      + 0 x473 + 0 x474 + 0 x475 + 0 x476 + 0 x477 + 0 x478 + 0 x479 + 0 x480
      + 0 x481 + 0 x482 + 0 x483 + 0 x484 + 0 x485 + 0 x486 + 0 x487 + 0 x488
      + 0 x489 + 0 x490 + 0 x491 + 0 x492 + 0 x493 + 0 x494 + 0 x495 + 0 x496
      + 0 x497 + 0 x498 + 0 x499 + 0 x500 + 0 x501 + 0 x502 + 0 x503 + 0 x504
      + 0 x505 + 0 x506 + 0 x507 + 0 x508 + 0 x509 + 0 x510 + 0 x511 + 0 x512
      + 0 x513 + 0 x514 + 0 x515 + 0 x516 + 0 x517 + 0 x518 + 0 x519 + 0 x520
      + 0 x521 + 0 x522 + 0 x523 + 0 x524 + 0 x525 + 0 x526 + 0 x527 + 0 x528
      + 0 x529 + 0 x530 + 0 x531 + 0 x532 + 0 x533 + 0 x534 + 0 x535 + 0 x536
      + 0 x537 + 0 x538 + 0 x539 + 0 x540 + 0 x541 + 0 x542 + 0 x543 + 0 x544
      + 0 x545 + 0 x546 + 0 x547 + 0 x548 + 0 x549 + 0 x550 + 0 x551 + 0 x552
      + 0 x553 + 0 x554 + 0 x555 + 0 x556 + 0 x557 + 0 x558 + 0 x559 + 0 x560
      + 0 x561 + 0 x562 + 0 x563 + 0 x564 + 0 x565 + 0 x566 + 0 x567 + 0 x568
      + 0 x569 + 0 x570 + 0 x571 + 0 x572 + 0 x573 + 0 x574 + 0 x575 + 0 x576
      + 0 x577 + 0 x578 + 0 x579 + 0 x580 + 0 x581 + 0 x582 + 0 x583 + 0 x584
      + 0 x585 + 0 x586 + 0 x587 + 0 x588 + 0 x589 + 0 x590 + 0 x591 + 0 x592
      + 0 x593 + 0 x594 + 0 x595 + 0 x596 + 0 x597 + 0 x598 + 0 x599 + 0 x600
      + 0 x601 + 0 x602 + 0 x603 + 0 x604 + 0 x605 + 0 x606 + 0 x607 + 0 x608
      + 0 x609 + 0 x610 + 0 x611 + 0 x612 + 0 x613 + 0 x614 + 0 x615 + 0 x616
      + 0 x617 + 0 x618 + 0 x619 + 0 x620 + 0 x621 + 0 x622 + 0 x623 + 0 x624
      + 0 x625 + 0 x626 + 0 x627 + 0 x628 + 0 x629 + 0 x630 + 0 x631 + 0 x632
      + 0 x633 + 0 x634 + 0 x635 + 0 x636 + 0 x637 + 0 x638 + 0 x639 + 0 x640
      + 0 x641 + 0 x642 + 0 x643 + 0 x644 + 0 x645 + 0 x646 + 0 x647 + 0 x648
      + 0 x649 + 0 x650 + 0 x651 + 0 x652 + 0 x653 + 0 x654 + 0 x655 + 0 x656
      + 0 x657 + 0 x658 + 0 x659 + 0 x660 + 0 x661 + 0 x662 + 0 x663 + 0 x664
      + 0 x665 + 0 x666 + 0 x667 + 0 x668 + 0 x669 + 0 x670 + 0 x671 + 0 x672
      + 0 x673 + 0 x674 + 0 x675 + 0 x676 + 0 x677 + 0 x678 + 0 x679 + 0 x680
      + 0 x681 + 0 x682 + 0 x683 + 0 x684 + 0 x685 + 0 x686 + 0 x687 + 0 x688
      + 0 x689 + 0 x690 + 0 x691 + 0 x692 + 0 x693 + 0 x694 + 0 x695 + 0 x696
      + 0 x697 + 0 x698 + 0 x699 + 0 x700 + 0 x701 + 0 x702 + 0 x703 + 0 x704
      + 0 x705 + 0 x706 + 0 x707 + 0 x708 + 0 x709 + 0 x710 + 0 x711 + 0 x712
      + 0 x713 + 0 x714 + 0 x715 + 0 x716 + 0 x717 + 0 x718 + 0 x719 + 0 x720
      + 0 x766 + 0 x767 + 0 x768 + 0 x769 + 0 x770 + 0 x771 + 0 x772 + 0 x773
      + 0 x774 + 0 x775 + 0 x776 + 0 x777 + 0 x778 + 0 x779 + 0 x780 + 0 x781
      + 0 x782 + 0 x783 + 0 x784 + 0 x785 + 0 x786 + 0 x787 + 0 x788 + 0 x789
      + 0 x790 + 0 x791 + 0 x792 + 0 x793 + 0 x794 + 0 x795 + 0 x796 + 0 x797
      + 0 x798 + 0 x799 + 0 x800 + 0 x801 + 0 x802 + 0 x803 + 0 x804 + 0 x805
      + 0 x806 + 0 x807 + 0 x808 + 0 x809 + 0 x810 + 0 x856 + 0 x857 + 0 x858
      + 0 x859 + 0 x860 + 0 x861 + 0 x862 + 0 x863 + 0 x864 + 0 x865 + 0 x866
      + 0 x867 + 0 x868 + 0 x869 + 0 x870 + 0 x871 + 0 x872 + 0 x873 + 0 x874
      + 0 x875 + 0 x876 + 0 x877 + 0 x878 + 0 x879 + 0 x880 + 0 x881 + 0 x882
      + 0 x883 + 0 x884 + 0 x885 + 0 x886 + 0 x887 + 0 x888 + 0 x889 + 0 x890
      + 0 x891 + 0 x892 + 0 x893 + 0 x894 + 0 x895 + 0 x896 + 0 x897 + 0 x898
      + 0 x899 + 0 x900 + x946 + x947 + x948 + x949 + x950 + x951 + x952 + x953
      + x954 + x955 + x956 + x957 + x958 + x959 + x960 + x961 + x962 + x963
      + x964 + x965 + x966 + x967 + x968 + x969 + x970 + x971 + x972 + x973
      + x974 + x975 + x976 + x977 + x978 + x979 + x980 + x981 + x982 + x983
      + x984 + x985 + x986 + x987 + x988 + x989 + x990
Subject To
 c1:   x361 + x721 - x811  = 0
 c2:   - 80.3290276974487 x1 - 80.3290276974487 x46 + 80.3290276974487 x136
        = 0
 c3:   - 80.3290276974487 x91 + 80.3290276974487 x181 + x316  = 0
 c4:   x271 - x721 + x901  = 0
 c5:   x362 + x722 - x812  = 0
 c6:   - 80.3290276974487 x2 - 80.3290276974487 x47 + 80.3290276974487 x137
        = 0
 c7:   - 80.3290276974487 x92 + 80.3290276974487 x182 + x317  = 0
 c8:   x272 - x722 + x902  = 0
 c9:   x363 + x723 - x813  = 0
 c10:  - 80.3290276974487 x3 - 80.3290276974487 x48 + 80.3290276974487 x138
        = 0
 c11:  - 80.3290276974487 x93 + 80.3290276974487 x183 + x318  = 0
 c12:  x273 - x723 + x903  = 0
 c13:  x364 + x724 - x814  = 0
 c14:  - 80.3290276974487 x4 - 80.3290276974487 x49 + 80.3290276974487 x139
        = 0
 c15:  - 80.3290276974487 x94 + 80.3290276974487 x184 + x319  = 0
 c16:  x274 - x724 + x904  = 0
 c17:  x365 + x725 - x815  = 0
 c18:  - 80.3290276974487 x5 - 80.3290276974487 x50 + 80.3290276974487 x140
        = 0
 c19:  - 80.3290276974487 x95 + 80.3290276974487 x185 + x320  = 0
 c20:  x275 - x725 + x905  = 0
 c21:  x366 + x726 - x816  = 0
 c22:  - 80.3290276974487 x6 - 80.3290276974487 x51 + 80.3290276974487 x141
        = 0
 c23:  - 80.3290276974487 x96 + 80.3290276974487 x186 + x321  = 0
 c24:  x276 - x726 + x906  = 0
 c25:  x367 + x727 - x817  = 0
 c26:  - 80.3290276974487 x7 - 80.3290276974487 x52 + 80.3290276974487 x142
        = 0
 c27:  - 80.3290276974487 x97 + 80.3290276974487 x187 + x322  = 0
 c28:  x277 - x727 + x907  = 0
 c29:  x368 + x728 - x818  = 0
 c30:  - 80.3290276974487 x8 - 80.3290276974487 x53 + 80.3290276974487 x143
        = 0
 c31:  - 80.3290276974487 x98 + 80.3290276974487 x188 + x323  = 0
 c32:  x278 - x728 + x908  = 0
 c33:  x369 + x729 - x819  = 0
 c34:  - 80.3290276974487 x9 - 80.3290276974487 x54 + 80.3290276974487 x144
        = 0
 c35:  - 80.3290276974487 x99 + 80.3290276974487 x189 + x324  = 0
 c36:  x279 - x729 + x909  = 0
 c37:  x370 + x730 - x820  = 0
 c38:  - 80.3290276974487 x10 - 80.3290276974487 x55 + 80.3290276974487 x145
        = 0
 c39:  - 80.3290276974487 x100 + 80.3290276974487 x190 + x325  = 0
 c40:  x280 - x730 + x910  = 0
 c41:  x371 + x731 - x821  = 0
 c42:  - 80.3290276974487 x11 - 80.3290276974487 x56 + 80.3290276974487 x146
        = 0
 c43:  - 80.3290276974487 x101 + 80.3290276974487 x191 + x326  = 0
 c44:  x281 - x731 + x911  = 0
 c45:  x372 + x732 - x822  = 0
 c46:  - 80.3290276974487 x12 - 80.3290276974487 x57 + 80.3290276974487 x147
        = 0
 c47:  - 80.3290276974487 x102 + 80.3290276974487 x192 + x327  = 0
 c48:  x282 - x732 + x912  = 0
 c49:  x373 + x733 - x823  = 0
 c50:  - 80.3290276974487 x13 - 80.3290276974487 x58 + 80.3290276974487 x148
        = 0
 c51:  - 80.3290276974487 x103 + 80.3290276974487 x193 + x328  = 0
 c52:  x283 - x733 + x913  = 0
 c53:  x374 + x734 - x824  = 0
 c54:  - 80.3290276974487 x14 - 80.3290276974487 x59 + 80.3290276974487 x149
        = 0
 c55:  - 80.3290276974487 x104 + 80.3290276974487 x194 + x329  = 0
 c56:  x284 - x734 + x914  = 0
 c57:  x375 + x735 - x825  = 0
 c58:  - 80.3290276974487 x15 - 80.3290276974487 x60 + 80.3290276974487 x150
        = 0
 c59:  - 80.3290276974487 x105 + 80.3290276974487 x195 + x330  = 0
 c60:  x285 - x735 + x915  = 0
 c61:  x376 + x736 - x826  = 0
 c62:  - 80.3290276974487 x16 - 80.3290276974487 x61 + 80.3290276974487 x151
        = 0
 c63:  - 80.3290276974487 x106 + 80.3290276974487 x196 + x331  = 0
 c64:  x286 - x736 + x916  = 0
 c65:  x377 + x737 - x827  = 0
 c66:  - 80.3290276974487 x17 - 80.3290276974487 x62 + 80.3290276974487 x152
        = 0
 c67:  - 80.3290276974487 x107 + 80.3290276974487 x197 + x332  = 0
 c68:  x287 - x737 + x917  = 0
 c69:  x378 + x738 - x828  = 0
 c70:  - 80.3290276974487 x18 - 80.3290276974487 x63 + 80.3290276974487 x153
        = 0
 c71:  - 80.3290276974487 x108 + 80.3290276974487 x198 + x333  = 0
 c72:  x288 - x738 + x918  = 0
 c73:  x379 + x739 - x829  = 0
 c74:  - 80.3290276974487 x19 - 80.3290276974487 x64 + 80.3290276974487 x154
        = 0
 c75:  - 80.3290276974487 x109 + 80.3290276974487 x199 + x334  = 0
 c76:  x289 - x739 + x919  = 0
 c77:  x380 + x740 - x830  = 0
 c78:  - 80.3290276974487 x20 - 80.3290276974487 x65 + 80.3290276974487 x155
        = 0
 c79:  - 80.3290276974487 x110 + 80.3290276974487 x200 + x335  = 0
 c80:  x290 - x740 + x920  = 0
 c81:  x381 + x741 - x831  = 0
 c82:  - 80.3290276974487 x21 - 80.3290276974487 x66 + 80.3290276974487 x156
        = 0
 c83:  - 80.3290276974487 x111 + 80.3290276974487 x201 + x336  = 0
 c84:  x291 - x741 + x921  = 0
 c85:  x382 + x742 - x832  = 0
 c86:  - 80.3290276974487 x22 - 80.3290276974487 x67 + 80.3290276974487 x157
        = 0
 c87:  - 80.3290276974487 x112 + 80.3290276974487 x202 + x337  = 0
 c88:  x292 - x742 + x922  = 0
 c89:  x383 + x743 - x833  = 0
 c90:  - 80.3290276974487 x23 - 80.3290276974487 x68 + 80.3290276974487 x158
        = 0
 c91:  - 80.3290276974487 x113 + 80.3290276974487 x203 + x338  = 0
 c92:  x293 - x743 + x923  = 0
 c93:  x384 + x744 - x834  = 0
 c94:  - 80.3290276974487 x24 - 80.3290276974487 x69 + 80.3290276974487 x159
        = 0
 c95:  - 80.3290276974487 x114 + 80.3290276974487 x204 + x339  = 0
 c96:  x294 - x744 + x924  = 0
 c97:  x385 + x745 - x835  = 0
 c98:  - 80.3290276974487 x25 - 80.3290276974487 x70 + 80.3290276974487 x160
        = 0
 c99:  - 80.3290276974487 x115 + 80.3290276974487 x205 + x340  = 0
 c100: x295 - x745 + x925  = 0
 c101: x386 + x746 - x836  = 0
 c102: - 80.3290276974487 x26 - 80.3290276974487 x71 + 80.3290276974487 x161
        = 0
 c103: - 80.3290276974487 x116 + 80.3290276974487 x206 + x341  = 0
 c104: x296 - x746 + x926  = 0
 c105: x387 + x747 - x837  = 0
 c106: - 80.3290276974487 x27 - 80.3290276974487 x72 + 80.3290276974487 x162
        = 0
 c107: - 80.3290276974487 x117 + 80.3290276974487 x207 + x342  = 0
 c108: x297 - x747 + x927  = 0
 c109: x388 + x748 - x838  = 0
 c110: - 80.3290276974487 x28 - 80.3290276974487 x73 + 80.3290276974487 x163
        = 0
 c111: - 80.3290276974487 x118 + 80.3290276974487 x208 + x343  = 0
 c112: x298 - x748 + x928  = 0
 c113: x389 + x749 - x839  = 0
 c114: - 80.3290276974487 x29 - 80.3290276974487 x74 + 80.3290276974487 x164
        = 0
 c115: - 80.3290276974487 x119 + 80.3290276974487 x209 + x344  = 0
 c116: x299 - x749 + x929  = 0
 c117: x390 + x750 - x840  = 0
 c118: - 80.3290276974487 x30 - 80.3290276974487 x75 + 80.3290276974487 x165
        = 0
 c119: - 80.3290276974487 x120 + 80.3290276974487 x210 + x345  = 0
 c120: x300 - x750 + x930  = 0
 c121: x391 + x751 - x841  = 0
 c122: - 80.3290276974487 x31 - 80.3290276974487 x76 + 80.3290276974487 x166
        = 0
 c123: - 80.3290276974487 x121 + 80.3290276974487 x211 + x346  = 0
 c124: x301 - x751 + x931  = 0
 c125: x392 + x752 - x842  = 0
 c126: - 80.3290276974487 x32 - 80.3290276974487 x77 + 80.3290276974487 x167
        = 0
 c127: - 80.3290276974487 x122 + 80.3290276974487 x212 + x347  = 0
 c128: x302 - x752 + x932  = 0
 c129: x393 + x753 - x843  = 0
 c130: - 80.3290276974487 x33 - 80.3290276974487 x78 + 80.3290276974487 x168
        = 0
 c131: - 80.3290276974487 x123 + 80.3290276974487 x213 + x348  = 0
 c132: x303 - x753 + x933  = 0
 c133: x394 + x754 - x844  = 0
 c134: - 80.3290276974487 x34 - 80.3290276974487 x79 + 80.3290276974487 x169
        = 0
 c135: - 80.3290276974487 x124 + 80.3290276974487 x214 + x349  = 0
 c136: x304 - x754 + x934  = 0
 c137: x395 + x755 - x845  = 0
 c138: - 80.3290276974487 x35 - 80.3290276974487 x80 + 80.3290276974487 x170
        = 0
 c139: - 80.3290276974487 x125 + 80.3290276974487 x215 + x350  = 0
 c140: x305 - x755 + x935  = 0
 c141: x396 + x756 - x846  = 0
 c142: - 80.3290276974487 x36 - 80.3290276974487 x81 + 80.3290276974487 x171
        = 0
 c143: - 80.3290276974487 x126 + 80.3290276974487 x216 + x351  = 0
 c144: x306 - x756 + x936  = 0
 c145: x397 + x757 - x847  = 0
 c146: - 80.3290276974487 x37 - 80.3290276974487 x82 + 80.3290276974487 x172
        = 0
 c147: - 80.3290276974487 x127 + 80.3290276974487 x217 + x352  = 0
 c148: x307 - x757 + x937  = 0
 c149: x398 + x758 - x848  = 0
 c150: - 80.3290276974487 x38 - 80.3290276974487 x83 + 80.3290276974487 x173
        = 0
 c151: - 80.3290276974487 x128 + 80.3290276974487 x218 + x353  = 0
 c152: x308 - x758 + x938  = 0
 c153: x399 + x759 - x849  = 0
 c154: - 80.3290276974487 x39 - 80.3290276974487 x84 + 80.3290276974487 x174
        = 0
 c155: - 80.3290276974487 x129 + 80.3290276974487 x219 + x354  = 0
 c156: x309 - x759 + x939  = 0
 c157: x400 + x760 - x850  = 0
 c158: - 80.3290276974487 x40 - 80.3290276974487 x85 + 80.3290276974487 x175
        = 0
 c159: - 80.3290276974487 x130 + 80.3290276974487 x220 + x355  = 0
 c160: x310 - x760 + x940  = 0
 c161: x401 + x761 - x851  = 0
 c162: - 80.3290276974487 x41 - 80.3290276974487 x86 + 80.3290276974487 x176
        = 0
 c163: - 80.3290276974487 x131 + 80.3290276974487 x221 + x356  = 0
 c164: x311 - x761 + x941  = 0
 c165: x402 + x762 - x852  = 0
 c166: - 80.3290276974487 x42 - 80.3290276974487 x87 + 80.3290276974487 x177
        = 0
 c167: - 80.3290276974487 x132 + 80.3290276974487 x222 + x357  = 0
 c168: x312 - x762 + x942  = 0
 c169: x403 + x763 - x853  = 0
 c170: - 80.3290276974487 x43 - 80.3290276974487 x88 + 80.3290276974487 x178
        = 0
 c171: - 80.3290276974487 x133 + 80.3290276974487 x223 + x358  = 0
 c172: x313 - x763 + x943  = 0
 c173: x404 + x764 - x854  = 0
 c174: - 80.3290276974487 x44 - 80.3290276974487 x89 + 80.3290276974487 x179
        = 0
 c175: - 80.3290276974487 x134 + 80.3290276974487 x224 + x359  = 0
 c176: x314 - x764 + x944  = 0
 c177: x405 + x765 - x855  = 0
 c178: - 80.3290276974487 x45 - 80.3290276974487 x90 + 80.3290276974487 x180
        = 0
 c179: - 80.3290276974487 x135 + 80.3290276974487 x225 + x360  = 0
 c180: x315 - x765 + x945  = 0
 c181: 0.0124488 x316 + 1.5 x946 >= 1.5
 c182: 0.0124488 x316 - 0.5 x946 <= 1.5
 c183: 0.0124488 x317 + 1.5 x947 >= 1.5
 c184: 0.0124488 x317 - 0.5 x947 <= 1.5
 c185: 0.0124488 x318 + 1.5 x948 >= 1.5
 c186: 0.0124488 x318 - 0.5 x948 <= 1.5
 c187: 0.0124488 x319 + 1.5 x949 >= 1.5
 c188: 0.0124488 x319 - 0.5 x949 <= 1.5
 c189: 0.0124488 x320 + 1.5 x950 >= 1.5
 c190: 0.0124488 x320 - 0.5 x950 <= 1.5
 c191: 0.0124488 x321 + 1.5 x951 >= 1.5
 c192: 0.0124488 x321 - 0.5 x951 <= 1.5
 c193: 0.0124488 x322 + 1.5 x952 >= 1.5
 c194: 0.0124488 x322 - 0.5 x952 <= 1.5
 c195: 0.0124488 x323 + 1.5 x953 >= 1.5
 c196: 0.0124488 x323 - 0.5 x953 <= 1.5
 c197: 0.0124488 x324 + 1.5 x954 >= 1.5
 c198: 0.0124488 x324 - 0.5 x954 <= 1.5
 c199: 0.0124488 x325 + 1.5 x955 >= 1.5
 c200: 0.0124488 x325 - 0.5 x955 <= 1.5
 c201: 0.0124488 x326 + 1.5 x956 >= 1.5
 c202: 0.0124488 x326 - 0.5 x956 <= 1.5
 c203: 0.0124488 x327 + 1.5 x957 >= 1.5
 c204: 0.0124488 x327 - 0.5 x957 <= 1.5
 c205: 0.0124488 x328 + 1.5 x958 >= 1.5
 c206: 0.0124488 x328 - 0.5 x958 <= 1.5
 c207: 0.0124488 x329 + 1.5 x959 >= 1.5
 c208: 0.0124488 x329 - 0.5 x959 <= 1.5
 c209: 0.0124488 x330 + 1.5 x960 >= 1.5
 c210: 0.0124488 x330 - 0.5 x960 <= 1.5
 c211: 0.0124488 x331 + 1.5 x961 >= 1.5
 c212: 0.0124488 x331 - 0.5 x961 <= 1.5
 c213: 0.0124488 x332 + x962 >= 1
 c214: 0.0124488 x332 - x962 <= 1
 c215: 0.0124488 x333 + x963 >= 1
 c216: 0.0124488 x333 - x963 <= 1
 c217: 0.0124488 x334 + x964 >= 1
 c218: 0.0124488 x334 - x964 <= 1
 c219: 0.0124488 x335 + x965 >= 1
 c220: 0.0124488 x335 - x965 <= 1
 c221: 0.0124488 x336 + x966 >= 1
 c222: 0.0124488 x336 - x966 <= 1
 c223: 0.0124488 x337 + x967 >= 1
 c224: 0.0124488 x337 - x967 <= 1
 c225: 0.0124488 x338 + x968 >= 1
 c226: 0.0124488 x338 - x968 <= 1
 c227: 0.0124488 x339 + x969 >= 1
 c228: 0.0124488 x339 - x969 <= 1
 c229: 0.0124488 x340 + x970 >= 1
 c230: 0.0124488 x340 - x970 <= 1
 c231: 0.0124488 x341 + x971 >= 1
 c232: 0.0124488 x341 - x971 <= 1
 c233: 0.0124488 x342 + x972 >= 1
 c234: 0.0124488 x342 - x972 <= 1
 c235: 0.0124488 x343 + x973 >= 1
 c236: 0.0124488 x343 - x973 <= 1
 c237: 0.0124488 x344 + x974 >= 1
 c238: 0.0124488 x344 - x974 <= 1
 c239: 0.0124488 x345 + 0.5 x975 >= 0.5
 c240: 0.0124488 x345 - 1.5 x975 <= 0.5
 c241: 0.0124488 x346 + 0.5 x976 >= 0.5
 c242: 0.0124488 x346 - 1.5 x976 <= 0.5
 c243: 0.0124488 x347 + 0.5 x977 >= 0.5
 c244: 0.0124488 x347 - 1.5 x977 <= 0.5
 c245: 0.0124488 x348 + 0.5 x978 >= 0.5
 c246: 0.0124488 x348 - 1.5 x978 <= 0.5
 c247: 0.0124488 x349 + 0.5 x979 >= 0.5
 c248: 0.0124488 x349 - 1.5 x979 <= 0.5
 c249: 0.0124488 x350 + 0.5 x980 >= 0.5
 c250: 0.0124488 x350 - 1.5 x980 <= 0.5
 c251: 0.0124488 x351 + 0.5 x981 >= 0.5
 c252: 0.0124488 x351 - 1.5 x981 <= 0.5
 c253: 0.0124488 x352 + 0.5 x982 >= 0.5
 c254: 0.0124488 x352 - 1.5 x982 <= 0.5
 c255: 0.0124488 x353 + 0.5 x983 >= 0.5
 c256: 0.0124488 x353 - 1.5 x983 <= 0.5
 c257: 0.0124488 x354 + 0.5 x984 >= 0.5
 c258: 0.0124488 x354 - 1.5 x984 <= 0.5
 c259: 0.0124488 x355 + 0.5 x985 >= 0.5
 c260: 0.0124488 x355 - 1.5 x985 <= 0.5
 c261: 0.0124488 x356 + 0.5 x986 >= 0.5
 c262: 0.0124488 x356 - 1.5 x986 <= 0.5
 c263: 0.0124488 x357 + 0.5 x987 >= 0.5
 c264: 0.0124488 x357 - 1.5 x987 <= 0.5
 c265: 0.0124488 x358 + 0.5 x988 >= 0.5
 c266: 0.0124488 x358 - 1.5 x988 <= 0.5
 c267: 0.0124488 x359 + 0.5 x989 >= 0.5
 c268: 0.0124488 x359 - 1.5 x989 <= 0.5
 c269: 0.0124488 x360 + 0.5 x990 >= 0.5
 c270: 0.0124488 x360 - 1.5 x990 <= 0.5
Bounds
 0.75 <= x1 <= 1.25
 0.75 <= x2 <= 1.25
 0.75 <= x3 <= 1.25
 0.75 <= x4 <= 1.25
 0.75 <= x5 <= 1.25
 0.75 <= x6 <= 1.25
 0.75 <= x7 <= 1.25
 0.75 <= x8 <= 1.25
 0.75 <= x9 <= 1.25
 0.75 <= x10 <= 1.25
 0.75 <= x11 <= 1.25
 0.75 <= x12 <= 1.25
 0.75 <= x13 <= 1.25
 0.75 <= x14 <= 1.25
 0.75 <= x15 <= 1.25
 0.75 <= x16 <= 1.25
 0.75 <= x17 <= 1.25
 0.75 <= x18 <= 1.25
 0.75 <= x19 <= 1.25
 0.75 <= x20 <= 1.25
 0.75 <= x21 <= 1.25
 0.75 <= x22 <= 1.25
 0.75 <= x23 <= 1.25
 0.75 <= x24 <= 1.25
 0.75 <= x25 <= 1.25
 0.75 <= x26 <= 1.25
 0.75 <= x27 <= 1.25
 0.75 <= x28 <= 1.25
 0.75 <= x29 <= 1.25
 0.75 <= x30 <= 1.25
 0.75 <= x31 <= 1.25
 0.75 <= x32 <= 1.25
 0.75 <= x33 <= 1.25
 0.75 <= x34 <= 1.25
 0.75 <= x35 <= 1.25
 0.75 <= x36 <= 1.25
 0.75 <= x37 <= 1.25
 0.75 <= x38 <= 1.25
 0.75 <= x39 <= 1.25
 0.75 <= x40 <= 1.25
 0.75 <= x41 <= 1.25
 0.75 <= x42 <= 1.25
 0.75 <= x43 <= 1.25
 0.75 <= x44 <= 1.25
 0.75 <= x45 <= 1.25
      x46 = 0
      x47 = 0
      x48 = 0
      x49 = 0
      x50 = 0
      x51 = 0
      x52 = 0
      x53 = 0
      x54 = 0
      x55 = 0
      x56 = 0
      x57 = 0
      x58 = 0
      x59 = 0
      x60 = 0
      x61 = 0
      x62 = 0
      x63 = 0
      x64 = 0
      x65 = 0
      x66 = 0
      x67 = 0
      x68 = 0
      x69 = 0
      x70 = 0
      x71 = 0
      x72 = 0
      x73 = 0
      x74 = 0
      x75 = 0
      x76 = 0
      x77 = 0
      x78 = 0
      x79 = 0
      x80 = 0
      x81 = 0
      x82 = 0
      x83 = 0
      x84 = 0
      x85 = 0
      x86 = 0
      x87 = 0
      x88 = 0
      x89 = 0
      x90 = 0
 0 <= x91 <= 2
 0 <= x92 <= 2
 0 <= x93 <= 2
 0 <= x94 <= 2
 0 <= x95 <= 2
 0 <= x96 <= 2
 0 <= x97 <= 2
 0 <= x98 <= 2
 0 <= x99 <= 2
 0 <= x100 <= 2
 0 <= x101 <= 2
 0 <= x102 <= 2
 0 <= x103 <= 2
 0 <= x104 <= 2
 0 <= x105 <= 2
 0 <= x106 <= 2
 0 <= x107 <= 2
 0 <= x108 <= 2
 0 <= x109 <= 2
 0 <= x110 <= 2
 0 <= x111 <= 2
 0 <= x112 <= 2
 0 <= x113 <= 2
 0 <= x114 <= 2
 0 <= x115 <= 2
 0 <= x116 <= 2
 0 <= x117 <= 2
 0 <= x118 <= 2
 0 <= x119 <= 2
 0 <= x120 <= 2
 0 <= x121 <= 2
 0 <= x122 <= 2
 0 <= x123 <= 2
 0 <= x124 <= 2
 0 <= x125 <= 2
 0 <= x126 <= 2
 0 <= x127 <= 2
 0 <= x128 <= 2
 0 <= x129 <= 2
 0 <= x130 <= 2
 0 <= x131 <= 2
 0 <= x132 <= 2
 0 <= x133 <= 2
 0 <= x134 <= 2
 0 <= x135 <= 2
 0 <= x136 <= 2
 0 <= x137 <= 2
 0 <= x138 <= 2
 0 <= x139 <= 2
 0 <= x140 <= 2
 0 <= x141 <= 2
 0 <= x142 <= 2
 0 <= x143 <= 2
 0 <= x144 <= 2
 0 <= x145 <= 2
 0 <= x146 <= 2
 0 <= x147 <= 2
 0 <= x148 <= 2
 0 <= x149 <= 2
 0 <= x150 <= 2
 0 <= x151 <= 2
 0 <= x152 <= 2
 0 <= x153 <= 2
 0 <= x154 <= 2
 0 <= x155 <= 2
 0 <= x156 <= 2
 0 <= x157 <= 2
 0 <= x158 <= 2
 0 <= x159 <= 2
 0 <= x160 <= 2
 0 <= x161 <= 2
 0 <= x162 <= 2
 0 <= x163 <= 2
 0 <= x164 <= 2
 0 <= x165 <= 2
 0 <= x166 <= 2
 0 <= x167 <= 2
 0 <= x168 <= 2
 0 <= x169 <= 2
 0 <= x170 <= 2
 0 <= x171 <= 2
 0 <= x172 <= 2
 0 <= x173 <= 2
 0 <= x174 <= 2
 0 <= x175 <= 2
 0 <= x176 <= 2
 0 <= x177 <= 2
 0 <= x178 <= 2
 0 <= x179 <= 2
 0 <= x180 <= 2
 0 <= x181 <= 2
 0 <= x182 <= 2
 0 <= x183 <= 2
 0 <= x184 <= 2
 0 <= x185 <= 2
 0 <= x186 <= 2
 0 <= x187 <= 2
 0 <= x188 <= 2
 0 <= x189 <= 2
 0 <= x190 <= 2
 0 <= x191 <= 2
 0 <= x192 <= 2
 0 <= x193 <= 2
 0 <= x194 <= 2
 0 <= x195 <= 2
 0 <= x196 <= 2
 0 <= x197 <= 2
 0 <= x198 <= 2
 0 <= x199 <= 2
 0 <= x200 <= 2
 0 <= x201 <= 2
 0 <= x202 <= 2
 0 <= x203 <= 2
 0 <= x204 <= 2
 0 <= x205 <= 2
 0 <= x206 <= 2
 0 <= x207 <= 2
 0 <= x208 <= 2
 0 <= x209 <= 2
 0 <= x210 <= 2
 0 <= x211 <= 2
 0 <= x212 <= 2
 0 <= x213 <= 2
 0 <= x214 <= 2
 0 <= x215 <= 2
 0 <= x216 <= 2
 0 <= x217 <= 2
 0 <= x218 <= 2
 0 <= x219 <= 2
 0 <= x220 <= 2
 0 <= x221 <= 2
 0 <= x222 <= 2
 0 <= x223 <= 2
 0 <= x224 <= 2
 0 <= x225 <= 2
      x226 Free
      x227 Free
      x228 Free
      x229 Free
      x230 Free
      x231 Free
      x232 Free
      x233 Free
      x234 Free
      x235 Free
      x236 Free
      x237 Free
      x238 Free
      x239 Free
      x240 Free
      x241 Free
      x242 Free
      x243 Free
      x244 Free
      x245 Free
      x246 Free
      x247 Free
      x248 Free
      x249 Free
      x250 Free
      x251 Free
      x252 Free
      x253 Free
      x254 Free
      x255 Free
      x256 Free
      x257 Free
      x258 Free
      x259 Free
      x260 Free
      x261 Free
      x262 Free
      x263 Free
      x264 Free
      x265 Free
      x266 Free
      x267 Free
      x268 Free
      x269 Free
      x270 Free
      x406 Free
      x407 Free
      x408 Free
      x409 Free
      x410 Free
      x411 Free
      x412 Free
      x413 Free
      x414 Free
      x415 Free
      x416 Free
      x417 Free
      x418 Free
      x419 Free
      x420 Free
      x421 Free
      x422 Free
      x423 Free
      x424 Free
      x425 Free
      x426 Free
      x427 Free
      x428 Free
      x429 Free
      x430 Free
      x431 Free
      x432 Free
      x433 Free
      x434 Free
      x435 Free
      x436 Free
      x437 Free
      x438 Free
      x439 Free
      x440 Free
      x441 Free
      x442 Free
      x443 Free
      x444 Free
      x445 Free
      x446 Free
      x447 Free
      x448 Free
      x449 Free
      x450 Free
      x451 Free
      x452 Free
      x453 Free
      x454 Free
      x455 Free
      x456 Free
      x457 Free
      x458 Free
      x459 Free
      x460 Free
      x461 Free
      x462 Free
      x463 Free
      x464 Free
      x465 Free
      x466 Free
      x467 Free
      x468 Free
      x469 Free
      x470 Free
      x471 Free
      x472 Free
      x473 Free
      x474 Free
      x475 Free
      x476 Free
      x477 Free
      x478 Free
      x479 Free
      x480 Free
      x481 Free
      x482 Free
      x483 Free
      x484 Free
      x485 Free
      x486 Free
      x487 Free
      x488 Free
      x489 Free
      x490 Free
      x491 Free
      x492 Free
      x493 Free
      x494 Free
      x495 Free
      x496 Free
      x497 Free
      x498 Free
      x499 Free
      x500 Free
      x501 Free
      x502 Free
      x503 Free
      x504 Free
      x505 Free
      x506 Free
      x507 Free
      x508 Free
      x509 Free
      x510 Free
      x511 Free
      x512 Free
      x513 Free
      x514 Free
      x515 Free
      x516 Free
      x517 Free
      x518 Free
      x519 Free
      x520 Free
      x521 Free
      x522 Free
      x523 Free
      x524 Free
      x525 Free
      x526 Free
      x527 Free
      x528 Free
      x529 Free
      x530 Free
      x531 Free
      x532 Free
      x533 Free
      x534 Free
      x535 Free
      x536 Free
      x537 Free
      x538 Free
      x539 Free
      x540 Free
      x541 Free
      x542 Free
      x543 Free
      x544 Free
      x545 Free
      x546 Free
      x547 Free
      x548 Free
      x549 Free
      x550 Free
      x551 Free
      x552 Free
      x553 Free
      x554 Free
      x555 Free
      x556 Free
      x557 Free
      x558 Free
      x559 Free
      x560 Free
      x561 Free
      x562 Free
      x563 Free
      x564 Free
      x565 Free
      x566 Free
      x567 Free
      x568 Free
      x569 Free
      x570 Free
      x571 Free
      x572 Free
      x573 Free
      x574 Free
      x575 Free
      x576 Free
      x577 Free
      x578 Free
      x579 Free
      x580 Free
      x581 Free
      x582 Free
      x583 Free
      x584 Free
      x585 Free
      x586 Free
      x587 Free
      x588 Free
      x589 Free
      x590 Free
      x591 Free
      x592 Free
      x593 Free
      x594 Free
      x595 Free
      x596 Free
      x597 Free
      x598 Free
      x599 Free
      x600 Free
      x601 Free
      x602 Free
      x603 Free
      x604 Free
      x605 Free
      x606 Free
      x607 Free
      x608 Free
      x609 Free
      x610 Free
      x611 Free
      x612 Free
      x613 Free
      x614 Free
      x615 Free
      x616 Free
      x617 Free
      x618 Free
      x619 Free
      x620 Free
      x621 Free
      x622 Free
      x623 Free
      x624 Free
      x625 Free
      x626 Free
      x627 Free
      x628 Free
      x629 Free
      x630 Free
      x631 Free
      x632 Free
      x633 Free
      x634 Free
      x635 Free
      x636 Free
      x637 Free
      x638 Free
      x639 Free
      x640 Free
      x641 Free
      x642 Free
      x643 Free
      x644 Free
      x645 Free
      x646 Free
      x647 Free
      x648 Free
      x649 Free
      x650 Free
      x651 Free
      x652 Free
      x653 Free
      x654 Free
      x655 Free
      x656 Free
      x657 Free
      x658 Free
      x659 Free
      x660 Free
      x661 Free
      x662 Free
      x663 Free
      x664 Free
      x665 Free
      x666 Free
      x667 Free
      x668 Free
      x669 Free
      x670 Free
      x671 Free
      x672 Free
      x673 Free
      x674 Free
      x675 Free
      x676 Free
      x677 Free
      x678 Free
      x679 Free
      x680 Free
      x681 Free
      x682 Free
      x683 Free
      x684 Free
      x685 Free
      x686 Free
      x687 Free
      x688 Free
      x689 Free
      x690 Free
      x691 Free
      x692 Free
      x693 Free
      x694 Free
      x695 Free
      x696 Free
      x697 Free
      x698 Free
      x699 Free
      x700 Free
      x701 Free
      x702 Free
      x703 Free
      x704 Free
      x705 Free
      x706 Free
      x707 Free
      x708 Free
      x709 Free
      x710 Free
      x711 Free
      x712 Free
      x713 Free
      x714 Free
      x715 Free
      x716 Free
      x717 Free
      x718 Free
      x719 Free
      x720 Free
      x721 Free
      x722 Free
      x723 Free
      x724 Free
      x725 Free
      x726 Free
      x727 Free
      x728 Free
      x729 Free
      x730 Free
      x731 Free
      x732 Free
      x733 Free
      x734 Free
      x735 Free
      x736 Free
      x737 Free
      x738 Free
      x739 Free
      x740 Free
      x741 Free
      x742 Free
      x743 Free
      x744 Free
      x745 Free
      x746 Free
      x747 Free
      x748 Free
      x749 Free
      x750 Free
      x751 Free
      x752 Free
      x753 Free
      x754 Free
      x755 Free
      x756 Free
      x757 Free
      x758 Free
      x759 Free
      x760 Free
      x761 Free
      x762 Free
      x763 Free
      x764 Free
      x765 Free
      x766 Free
      x767 Free
      x768 Free
      x769 Free
      x770 Free
      x771 Free
      x772 Free
      x773 Free
      x774 Free
      x775 Free
      x776 Free
      x777 Free
      x778 Free
      x779 Free
      x780 Free
      x781 Free
      x782 Free
      x783 Free
      x784 Free
      x785 Free
      x786 Free
      x787 Free
      x788 Free
      x789 Free
      x790 Free
      x791 Free
      x792 Free
      x793 Free
      x794 Free
      x795 Free
      x796 Free
      x797 Free
      x798 Free
      x799 Free
      x800 Free
      x801 Free
      x802 Free
      x803 Free
      x804 Free
      x805 Free
      x806 Free
      x807 Free
      x808 Free
      x809 Free
      x810 Free
      x811 Free
      x812 Free
      x813 Free
      x814 Free
      x815 Free
      x816 Free
      x817 Free
      x818 Free
      x819 Free
      x820 Free
      x821 Free
      x822 Free
      x823 Free
      x824 Free
      x825 Free
      x826 Free
      x827 Free
      x828 Free
      x829 Free
      x830 Free
      x831 Free
      x832 Free
      x833 Free
      x834 Free
      x835 Free
      x836 Free
      x837 Free
      x838 Free
      x839 Free
      x840 Free
      x841 Free
      x842 Free
      x843 Free
      x844 Free
      x845 Free
      x846 Free
      x847 Free
      x848 Free
      x849 Free
      x850 Free
      x851 Free
      x852 Free
      x853 Free
      x854 Free
      x855 Free
      x856 Free
      x857 Free
      x858 Free
      x859 Free
      x860 Free
      x861 Free
      x862 Free
      x863 Free
      x864 Free
      x865 Free
      x866 Free
      x867 Free
      x868 Free
      x869 Free
      x870 Free
      x871 Free
      x872 Free
      x873 Free
      x874 Free
      x875 Free
      x876 Free
      x877 Free
      x878 Free
      x879 Free
      x880 Free
      x881 Free
      x882 Free
      x883 Free
      x884 Free
      x885 Free
      x886 Free
      x887 Free
      x888 Free
      x889 Free
      x890 Free
      x891 Free
      x892 Free
      x893 Free
      x894 Free
      x895 Free
      x896 Free
      x897 Free
      x898 Free
      x899 Free
      x900 Free
      x901 Free
      x902 Free
      x903 Free
      x904 Free
      x905 Free
      x906 Free
      x907 Free
      x908 Free
      x909 Free
      x910 Free
      x911 Free
      x912 Free
      x913 Free
      x914 Free
      x915 Free
      x916 Free
      x917 Free
      x918 Free
      x919 Free
      x920 Free
      x921 Free
      x922 Free
      x923 Free
      x924 Free
      x925 Free
      x926 Free
      x927 Free
      x928 Free
      x929 Free
      x930 Free
      x931 Free
      x932 Free
      x933 Free
      x934 Free
      x935 Free
      x936 Free
      x937 Free
      x938 Free
      x939 Free
      x940 Free
      x941 Free
      x942 Free
      x943 Free
      x944 Free
      x945 Free
 0 <= x946 <= 1
 0 <= x947 <= 1
 0 <= x948 <= 1
 0 <= x949 <= 1
 0 <= x950 <= 1
 0 <= x951 <= 1
 0 <= x952 <= 1
 0 <= x953 <= 1
 0 <= x954 <= 1
 0 <= x955 <= 1
 0 <= x956 <= 1
 0 <= x957 <= 1
 0 <= x958 <= 1
 0 <= x959 <= 1
 0 <= x960 <= 1
 0 <= x961 <= 1
 0 <= x962 <= 1
 0 <= x963 <= 1
 0 <= x964 <= 1
 0 <= x965 <= 1
 0 <= x966 <= 1
 0 <= x967 <= 1
 0 <= x968 <= 1
 0 <= x969 <= 1
 0 <= x970 <= 1
 0 <= x971 <= 1
 0 <= x972 <= 1
 0 <= x973 <= 1
 0 <= x974 <= 1
 0 <= x975 <= 1
 0 <= x976 <= 1
 0 <= x977 <= 1
 0 <= x978 <= 1
 0 <= x979 <= 1
 0 <= x980 <= 1
 0 <= x981 <= 1
 0 <= x982 <= 1
 0 <= x983 <= 1
 0 <= x984 <= 1
 0 <= x985 <= 1
 0 <= x986 <= 1
 0 <= x987 <= 1
 0 <= x988 <= 1
 0 <= x989 <= 1
 0 <= x990 <= 1
End
